\* TSP *\
Minimize
OBJ: 1435.13190819 x_0_1 + 652.696054785 x_0_2 + 883.093828296 x_0_3
 + 1460.01133748 x_0_4 + 1143.62384264 x_0_5 + 492.041289206 x_0_6
 + 1697.51313667 x_0_7 + 1841.73160573 x_0_8 + 1435.13190819 x_1_0
 + 887.622811829 x_1_2 + 662.477252242 x_1_3 + 159.216207048 x_1_4
 + 821.840964686 x_1_5 + 969.106630391 x_1_6 + 669.113071398 x_1_7
 + 486.898363584 x_1_8 + 652.696054785 x_2_0 + 887.622811829 x_2_1
 + 244.906738184 x_2_3 + 867.700379509 x_2_4 + 994.570466432 x_2_5
 + 187.542589404 x_2_6 + 1349.55190632 x_2_7 + 1355.19395644 x_2_8
 + 883.093828296 x_3_0 + 662.477252242 x_3_1 + 244.906738184 x_3_2
 + 627.440315876 x_3_4 + 945.206518108 x_3_5 + 393.138583719 x_3_6
 + 1190.67636751 x_3_7 + 1142.29222663 x_3_8 + 1460.01133748 x_4_0
 + 159.216207048 x_4_1 + 867.700379509 x_4_2 + 627.440315876 x_4_3
 + 961.686879298 x_4_5 + 977.041375856 x_4_6 + 822.434464384 x_4_7
 + 587.714063144 x_4_8 + 1143.62384264 x_5_0 + 821.840964686 x_5_1
 + 994.570466432 x_5_2 + 945.206518108 x_5_3 + 961.686879298 x_5_4
 + 911.80564593 x_5_6 + 626.504221075 x_5_7 + 945.104518254 x_5_8
 + 492.041289206 x_6_0 + 969.106630391 x_6_1 + 187.542589404 x_6_2
 + 393.138583719 x_6_3 + 977.041375856 x_6_4 + 911.80564593 x_6_5
 + 1345.30297866 x_6_7 + 1410.06442406 x_6_8 + 1697.51313667 x_7_0
 + 669.113071398 x_7_1 + 1349.55190632 x_7_2 + 1190.67636751 x_7_3
 + 822.434464384 x_7_4 + 626.504221075 x_7_5 + 1345.30297866 x_7_6
 + 432.546946207 x_7_8 + 1841.73160573 x_8_0 + 486.898363584 x_8_1
 + 1355.19395644 x_8_2 + 1142.29222663 x_8_3 + 587.714063144 x_8_4
 + 945.104518254 x_8_5 + 1410.06442406 x_8_6 + 432.546946207 x_8_7
Subject To
Incoming_sum_0: x_1_0 + x_2_0 + x_3_0 + x_4_0 + x_5_0 + x_6_0 + x_7_0 + x_8_0
 = 1
Incoming_sum_1: x_0_1 + x_2_1 + x_3_1 + x_4_1 + x_5_1 + x_6_1 + x_7_1 + x_8_1
 = 1
Incoming_sum_2: x_0_2 + x_1_2 + x_3_2 + x_4_2 + x_5_2 + x_6_2 + x_7_2 + x_8_2
 = 1
Incoming_sum_3: x_0_3 + x_1_3 + x_2_3 + x_4_3 + x_5_3 + x_6_3 + x_7_3 + x_8_3
 = 1
Incoming_sum_4: x_0_4 + x_1_4 + x_2_4 + x_3_4 + x_5_4 + x_6_4 + x_7_4 + x_8_4
 = 1
Incoming_sum_5: x_0_5 + x_1_5 + x_2_5 + x_3_5 + x_4_5 + x_6_5 + x_7_5 + x_8_5
 = 1
Incoming_sum_6: x_0_6 + x_1_6 + x_2_6 + x_3_6 + x_4_6 + x_5_6 + x_7_6 + x_8_6
 = 1
Incoming_sum_7: x_0_7 + x_1_7 + x_2_7 + x_3_7 + x_4_7 + x_5_7 + x_6_7 + x_8_7
 = 1
Incoming_sum_8: x_0_8 + x_1_8 + x_2_8 + x_3_8 + x_4_8 + x_5_8 + x_6_8 + x_7_8
 = 1
Outgoing_sum_0: x_0_1 + x_0_2 + x_0_3 + x_0_4 + x_0_5 + x_0_6 + x_0_7 + x_0_8
 = 1
Outgoing_sum_1: x_1_0 + x_1_2 + x_1_3 + x_1_4 + x_1_5 + x_1_6 + x_1_7 + x_1_8
 = 1
Outgoing_sum_2: x_2_0 + x_2_1 + x_2_3 + x_2_4 + x_2_5 + x_2_6 + x_2_7 + x_2_8
 = 1
Outgoing_sum_3: x_3_0 + x_3_1 + x_3_2 + x_3_4 + x_3_5 + x_3_6 + x_3_7 + x_3_8
 = 1
Outgoing_sum_4: x_4_0 + x_4_1 + x_4_2 + x_4_3 + x_4_5 + x_4_6 + x_4_7 + x_4_8
 = 1
Outgoing_sum_5: x_5_0 + x_5_1 + x_5_2 + x_5_3 + x_5_4 + x_5_6 + x_5_7 + x_5_8
 = 1
Outgoing_sum_6: x_6_0 + x_6_1 + x_6_2 + x_6_3 + x_6_4 + x_6_5 + x_6_7 + x_6_8
 = 1
Outgoing_sum_7: x_7_0 + x_7_1 + x_7_2 + x_7_3 + x_7_4 + x_7_5 + x_7_6 + x_7_8
 = 1
Outgoing_sum_8: x_8_0 + x_8_1 + x_8_2 + x_8_3 + x_8_4 + x_8_5 + x_8_6 + x_8_7
 = 1
sub_tour_elim_1_2: s_1 - s_2 + 8 x_1_2 <= 7
sub_tour_elim_1_3: s_1 - s_3 + 8 x_1_3 <= 7
sub_tour_elim_1_4: s_1 - s_4 + 8 x_1_4 <= 7
sub_tour_elim_1_5: s_1 - s_5 + 8 x_1_5 <= 7
sub_tour_elim_1_6: s_1 - s_6 + 8 x_1_6 <= 7
sub_tour_elim_1_7: s_1 - s_7 + 8 x_1_7 <= 7
sub_tour_elim_1_8: s_1 - s_8 + 8 x_1_8 <= 7
sub_tour_elim_2_1: - s_1 + s_2 + 8 x_2_1 <= 7
sub_tour_elim_2_3: s_2 - s_3 + 8 x_2_3 <= 7
sub_tour_elim_2_4: s_2 - s_4 + 8 x_2_4 <= 7
sub_tour_elim_2_5: s_2 - s_5 + 8 x_2_5 <= 7
sub_tour_elim_2_6: s_2 - s_6 + 8 x_2_6 <= 7
sub_tour_elim_2_7: s_2 - s_7 + 8 x_2_7 <= 7
sub_tour_elim_2_8: s_2 - s_8 + 8 x_2_8 <= 7
sub_tour_elim_3_1: - s_1 + s_3 + 8 x_3_1 <= 7
sub_tour_elim_3_2: - s_2 + s_3 + 8 x_3_2 <= 7
sub_tour_elim_3_4: s_3 - s_4 + 8 x_3_4 <= 7
sub_tour_elim_3_5: s_3 - s_5 + 8 x_3_5 <= 7
sub_tour_elim_3_6: s_3 - s_6 + 8 x_3_6 <= 7
sub_tour_elim_3_7: s_3 - s_7 + 8 x_3_7 <= 7
sub_tour_elim_3_8: s_3 - s_8 + 8 x_3_8 <= 7
sub_tour_elim_4_1: - s_1 + s_4 + 8 x_4_1 <= 7
sub_tour_elim_4_2: - s_2 + s_4 + 8 x_4_2 <= 7
sub_tour_elim_4_3: - s_3 + s_4 + 8 x_4_3 <= 7
sub_tour_elim_4_5: s_4 - s_5 + 8 x_4_5 <= 7
sub_tour_elim_4_6: s_4 - s_6 + 8 x_4_6 <= 7
sub_tour_elim_4_7: s_4 - s_7 + 8 x_4_7 <= 7
sub_tour_elim_4_8: s_4 - s_8 + 8 x_4_8 <= 7
sub_tour_elim_5_1: - s_1 + s_5 + 8 x_5_1 <= 7
sub_tour_elim_5_2: - s_2 + s_5 + 8 x_5_2 <= 7
sub_tour_elim_5_3: - s_3 + s_5 + 8 x_5_3 <= 7
sub_tour_elim_5_4: - s_4 + s_5 + 8 x_5_4 <= 7
sub_tour_elim_5_6: s_5 - s_6 + 8 x_5_6 <= 7
sub_tour_elim_5_7: s_5 - s_7 + 8 x_5_7 <= 7
sub_tour_elim_5_8: s_5 - s_8 + 8 x_5_8 <= 7
sub_tour_elim_6_1: - s_1 + s_6 + 8 x_6_1 <= 7
sub_tour_elim_6_2: - s_2 + s_6 + 8 x_6_2 <= 7
sub_tour_elim_6_3: - s_3 + s_6 + 8 x_6_3 <= 7
sub_tour_elim_6_4: - s_4 + s_6 + 8 x_6_4 <= 7
sub_tour_elim_6_5: - s_5 + s_6 + 8 x_6_5 <= 7
sub_tour_elim_6_7: s_6 - s_7 + 8 x_6_7 <= 7
sub_tour_elim_6_8: s_6 - s_8 + 8 x_6_8 <= 7
sub_tour_elim_7_1: - s_1 + s_7 + 8 x_7_1 <= 7
sub_tour_elim_7_2: - s_2 + s_7 + 8 x_7_2 <= 7
sub_tour_elim_7_3: - s_3 + s_7 + 8 x_7_3 <= 7
sub_tour_elim_7_4: - s_4 + s_7 + 8 x_7_4 <= 7
sub_tour_elim_7_5: - s_5 + s_7 + 8 x_7_5 <= 7
sub_tour_elim_7_6: - s_6 + s_7 + 8 x_7_6 <= 7
sub_tour_elim_7_8: s_7 - s_8 + 8 x_7_8 <= 7
sub_tour_elim_8_1: - s_1 + s_8 + 8 x_8_1 <= 7
sub_tour_elim_8_2: - s_2 + s_8 + 8 x_8_2 <= 7
sub_tour_elim_8_3: - s_3 + s_8 + 8 x_8_3 <= 7
sub_tour_elim_8_4: - s_4 + s_8 + 8 x_8_4 <= 7
sub_tour_elim_8_5: - s_5 + s_8 + 8 x_8_5 <= 7
sub_tour_elim_8_6: - s_6 + s_8 + 8 x_8_6 <= 7
sub_tour_elim_8_7: - s_7 + s_8 + 8 x_8_7 <= 7
Bounds
 0 <= s_1
 0 <= s_2
 0 <= s_3
 0 <= s_4
 0 <= s_5
 0 <= s_6
 0 <= s_7
 0 <= s_8
Generals
s_1
s_2
s_3
s_4
s_5
s_6
s_7
s_8
Binaries
x_0_1
x_0_2
x_0_3
x_0_4
x_0_5
x_0_6
x_0_7
x_0_8
x_1_0
x_1_2
x_1_3
x_1_4
x_1_5
x_1_6
x_1_7
x_1_8
x_2_0
x_2_1
x_2_3
x_2_4
x_2_5
x_2_6
x_2_7
x_2_8
x_3_0
x_3_1
x_3_2
x_3_4
x_3_5
x_3_6
x_3_7
x_3_8
x_4_0
x_4_1
x_4_2
x_4_3
x_4_5
x_4_6
x_4_7
x_4_8
x_5_0
x_5_1
x_5_2
x_5_3
x_5_4
x_5_6
x_5_7
x_5_8
x_6_0
x_6_1
x_6_2
x_6_3
x_6_4
x_6_5
x_6_7
x_6_8
x_7_0
x_7_1
x_7_2
x_7_3
x_7_4
x_7_5
x_7_6
x_7_8
x_8_0
x_8_1
x_8_2
x_8_3
x_8_4
x_8_5
x_8_6
x_8_7
End
